% File represents an instance of a Composite Structure problem to be solved by a CP framework
% Created on 2025-03-25 14:05:14.215
T = 55;
n = 16;
m = 24;
edges = [(2, 1),
(5, 6),
(9, 10),
(14, 13),
(2, 3),
(7, 6),
(11, 10),
(14, 15),
(4, 3),
(7, 8),
(12, 11),
(16, 15),
(5, 1),
(5, 9),
(9, 13),
(6, 2),
(6, 10),
(14, 10),
(7, 3),
(7, 11),
(15, 11),
(8, 4),
(8, 12),
(12, 16)];
counts = [|5, 2, 22, 16,
|5, 2, 22, 17,
|5, 2, 22, 15,
|6, 2, 22, 15,
|5, 4, 26, 20,
|5, 2, 22, 19,
|6, 3, 23, 19,
|6, 2, 23, 19,
|4, 3, 23, 16,
|3, 2, 19, 15,
|4, 2, 20, 15,
|4, 2, 21, 19,
|4, 2, 18, 14,
|4, 4, 20, 20,
|4, 2, 20, 16,
|4, 2, 20, 17|];
